c FILE /home/rafael/Documents/HappySet/MIHS/inputs/happygen/output/graph_d_regular_k4_p0.4_v50_20241127_082617.txt
c SOURCE This is a d-regular graph formed for the happy graph colouring problem.
c DESCRIPTION It was generated using the problem generator of Rhyd Lewis
c
c GRAPH STATS
c Seed                             = 1491919170
c Number of Nodes                  = 50
c Number of colours k              = 4
c Number of pre-assignments        = 20
c Degree of all vertices           = 6
c Density                          = 0.122449
c 
c The degrees of nodes 1 to 50, respectively, are as follows 
c [6, 6, 6, 6, 6, 6, 6, 6, 6, 6, 6, 6, 6, 6, 6, 6, 6, 6, 6, 6, 6, 6, 6, 6, 6, 6, 
c  6, 6, 6, 6, 6, 6, 6, 6, 6, 6, 6, 6, 6, 6, 6, 6, 6, 6, 6, 6, 6, 6, 6, 6] 
c  
p edge 50 150 4
e 1 6
e 1 11
e 1 21
e 1 25
e 1 40
e 1 41
e 2 10
e 2 17
e 2 23
e 2 28
e 2 34
e 2 43
e 3 14
e 3 15
e 3 24
e 3 32
e 3 46
e 3 47
e 4 12
e 4 20
e 4 27
e 4 32
e 4 39
e 4 50
e 5 9
e 5 13
e 5 21
e 5 41
e 5 44
e 5 48
e 6 22
e 6 30
e 6 46
e 6 49
e 6 50
e 7 12
e 7 18
e 7 20
e 7 35
e 7 42
e 7 46
e 8 14
e 8 21
e 8 23
e 8 38
e 8 41
e 8 45
e 9 18
e 9 27
e 9 32
e 9 35
e 9 36
e 10 26
e 10 34
e 10 37
e 10 40
e 10 45
e 11 18
e 11 22
e 11 30
e 11 38
e 11 43
e 12 21
e 12 26
e 12 32
e 12 33
e 13 24
e 13 29
e 13 41
e 13 42
e 13 48
e 14 17
e 14 36
e 14 47
e 14 50
e 15 22
e 15 26
e 15 39
e 15 44
e 15 47
e 16 17
e 16 18
e 16 28
e 16 30
e 16 42
e 16 43
e 17 20
e 17 25
e 17 29
e 18 28
e 18 39
e 19 26
e 19 30
e 19 39
e 19 42
e 19 44
e 19 49
e 20 31
e 20 37
e 20 49
e 21 33
e 21 38
e 22 33
e 22 34
e 22 50
e 23 27
e 23 35
e 23 37
e 23 40
e 24 37
e 24 41
e 24 46
e 24 48
e 25 29
e 25 38
e 25 47
e 25 49
e 26 34
e 26 38
e 27 42
e 27 45
e 27 48
e 28 32
e 28 36
e 28 49
e 29 34
e 29 43
e 29 44
e 30 47
e 30 48
e 31 33
e 31 38
e 31 40
e 31 44
e 31 47
e 32 36
e 33 37
e 33 43
e 34 40
e 35 36
e 35 39
e 35 50
e 36 45
e 37 41
e 39 40
e 42 49
e 43 45
e 44 48
e 45 46
e 46 50
n 3 4
n 5 1
n 10 3
n 12 2
n 17 4
n 18 4
n 22 4
n 23 2
n 25 4
n 30 1
n 36 1
n 38 4
n 41 1
n 42 4
n 43 3
n 44 1
n 46 4
n 48 1
n 49 4
n 50 4
